gen cost
0 1410
1 1410
2 1410
3 1410
4 1386
5 1386
6 1308
7 1308
8 1308
9 1308
10 1306
11 1306
12 1306
13 1238
14 1238
15 1191
16 1191
17 1191
18 1191
19 1191
20 1191
21 1169
22 1169
23 1169
24 1169
25 1169
26 1154
27 1154
28 1154
29 1154
30 1113
31 1113
32 1113
33 1113
34 1113
35 1087
36 1087
37 1087
38 1051
39 1051
40 1051
41 1051
42 1051
43 1051
44 1051
45 1051
46 1051
47 1051
48 1051
49 1051
time 0
